! PBE0 ZORA ZORA-def2-TZVP SARC/J D3BJ OPT FREQ TightOpt TightSCF
! SlowConv
! NoFrozenCore

%pal
   nprocs 7
end

%basis
   NewGTO Pd "SARC-ZORA-TZVP" end
end

%scf
   MaxIter 500
end

%geom
   MaxIter 300
end

%cpcm
   epsilon 8.93
end

* xyz 0 1
6       -3.385987892      0.460201906      1.188247044
6       -3.255077128     -1.081457886      1.192807315
6       -0.842913986     -0.769303089      1.431429182
1       -1.968522250     -2.345937160      2.516519153
6       -2.294079743     -0.217229733      3.181039953
6       -2.052067982     -1.324231327      2.147397269
1       -4.156298179     -1.552896659      1.592734042
1       -3.075064242     -1.497186481      0.199978798
6       -2.241205125      0.908243604      2.140120976
1       -3.279293877      0.894661439      0.192888971
1       -4.353480668      0.775198064      1.587200086
6       -0.955538651      0.560139389      1.427220108
1       -2.331224892      1.931679143      2.502868336
1       -0.497916270      1.505466627      1.651751101
1       -0.254954329     -1.593638800      1.789549382
1       -3.264075364     -0.297211542      3.680266305
1       -1.495940509     -0.147131715      3.923190538
46       0.246928161     -0.137187114     -0.088222577
8       -0.793603839      1.609331886     -0.041093577
6        0.295890161      2.262234886     -0.081720577
8        1.358107161      1.565521886     -0.134244577
1       -0.631635839     -4.381165114     -0.704230577
8       -0.864060839     -1.840309114     -0.045672577
6        0.198888161     -2.536641114     -0.086820577
8        1.287774161     -1.883291114     -0.136256577
6        0.166035161     -4.015389114     -0.057129577
1        1.127612161     -4.424552114     -0.361459577
1       -0.054209839     -4.336886114      0.964460423
6        0.331989161      3.740834886     -0.048362577
1        1.071101161      4.109470886     -0.760155577
1       -0.652008839      4.151454886     -0.266929577
1        0.639675161      4.057680886      0.951858423
*