! PBE0 ZORA ZORA-def2-TZVP SARC/J CPCM(DCM) OPT FREQ

%pal
  nprocs 7
end

%basis
  NewGTO Pd "SARC-ZORA-TZVP" end
  NewGTO C  "ZORA-def2-TZVP" end
  NewGTO H  "ZORA-def2-TZVP" end
  NewGTO O  "ZORA-def2-TZVP" end
end

%cpcm
  epsilon 8.93
end

* xyz 0 1
46       0.267252000     -0.305181000     -0.059041000
8       -0.784397000      1.468614000     -0.012259000
6        0.319413000      2.123074000     -0.055645000
8        1.394150000      1.422089000     -0.107123000
1       -0.613620000     -4.593132000     -0.695686000
8       -0.859276000     -2.033252000     -0.017438000
6        0.216253000     -2.733455000     -0.061440000
8        1.319419000     -2.078164000     -0.109984000
6        0.184775000     -4.223993000     -0.039000000
1        1.154956000     -4.630517000     -0.346530000
1       -0.038199000     -4.564026000      0.983359000
6        0.354867000      3.613531000     -0.029921000
1        1.094742000      3.983238000     -0.751572000
1       -0.637445000      4.022326000     -0.252084000
1        0.665311000      3.950212000      0.970469000
*