! PBE0 ZORA ZORA-def2-TZVP SARC/J D3BJ OPT FREQ 

%pal
   nprocs 7
end

%basis
   NewGTO Pd "SARC-ZORA-TZVP" end
end

%scf
   MaxIter 500
end

%geom
   MaxIter 300
end

%cpcm
   epsilon 8.93
end

* xyz 0 1
6       -3.244901419      0.627867115     -1.889433650
6       -3.113990655     -0.913792677     -1.884873379
6       -0.701827513     -0.601637880     -1.646251512
1       -1.827435777     -2.178271951     -0.561161541
6       -2.152993270     -0.049564524      0.103359259
6       -1.910981509     -1.156566118     -0.930283425
1       -4.015211706     -1.385231450     -1.484946652
1       -2.933977769     -1.329521272     -2.877701896
6       -2.100118652      1.075908813     -0.937559718
1       -3.138207404      1.062326648     -2.884791723
1       -4.212394195      0.942863273     -1.490480608
6       -0.814452178      0.727804598     -1.650460586
1       -2.190138419      2.099344352     -0.574812358
1       -0.356829797      1.673131836     -1.425929593
1       -0.113867856     -1.425973591     -1.288131312
1       -3.122988891     -0.129546333      0.602585611
1       -1.354854036      0.020533494      0.845509844
46       0.246928161     -0.137187114     -0.088222577
8       -0.793603839      1.609331886     -0.041093577
6        0.295890161      2.262234886     -0.081720577
8        1.358107161      1.565521886     -0.134244577
1       -0.631635839     -4.381165114     -0.704230577
8       -0.864060839     -1.840309114     -0.045672577
6        0.198888161     -2.536641114     -0.086820577
8        1.287774161     -1.883291114     -0.136256577
6        0.166035161     -4.015389114     -0.057129577
1        1.127612161     -4.424552114     -0.361459577
1       -0.054209839     -4.336886114      0.964460423
6        0.331989161      3.740834886     -0.048362577
1        1.071101161      4.109470886     -0.760155577
1       -0.652008839      4.151454886     -0.266929577
1        0.639675161      4.057680886      0.951858423
*