! PBE0 ZORA ZORA-def2-TZVP SARC/J Opt FREQ

%pal
  nprocs 7
end

%basis
  NewGTO Pd "SARC-ZORA-TZVP" end
  NewGTO C  "ZORA-def2-TZVP" end
  NewGTO H  "ZORA-def2-TZVP" end
  NewGTO O  "ZORA-def2-TZVP" end
end

* xyz 0 1
C    -11.51260   -1.97420    2.27420
C    -11.08310   -3.46720    2.39120
C    -8.74540   -2.66500    2.46000
H    -9.48830   -4.31640    3.74040
C    -10.19510   -2.25480    4.22900
C    -9.80460   -3.38620    3.26270
H    -11.85860   -4.05330    2.89100
H    -10.87640   -3.91010    1.41360
C    -10.42170   -1.24090    3.09460
H    -11.53090   -1.63510    1.23530
H    -12.50060   -1.82160    2.71610
C    -9.10920   -1.40030    2.36080
H    -10.66480   -0.22670    3.41980
H    -8.58420   -0.59620    1.85100
H    -7.85420   -3.13380    2.05000
H    -11.09730   -2.46880    4.81010
H    -9.37690   -1.96710    4.89620
*