! PBE0 ZORA ZORA-def2-TZVP SARC/J D4 OPT FREQ
%pal
    nprocs 7
end

%basis
    NewGTO Pd "SARC-ZORA-TZVP" end
end

%scf
    MaxIter 500
end

%geom
    MaxIter 300
    Scan
        B 11 17 [2.30 2.40 2.50 2.60 2.70 2.80 2.90 3.00]
        B 2 17 [2.30 2.40 2.50 2.60 2.70 2.80 2.90 3.00]
    end
    Constraints
        { B 11 17 C }
        { B 2 17 C }
    end
end

%cpcm
    epsilon 8.93
end

* xyz 0 1
6       -2.506786000      1.272014000      2.887666000
6       -3.452608000      0.931546000      1.712755000
6       -2.157169000     -1.202159000      1.396376000
1       -4.334238000     -1.039592000      1.181281000
6       -3.477269000     -0.853460000      3.266871000
6       -3.507745000     -0.608423000      1.742960000
1       -4.455760000      1.324858000      1.886711000
1       -3.101067000      1.318814000      0.758847000
6       -2.135227000     -0.113061000      3.450156000
1       -1.635369000      1.845129000      2.578757000
1       -3.025776000      1.841814000      3.660542000
6       -1.312140000     -0.899645000      2.449109000
1       -1.706629000     -0.092111000      4.450288000
1       -0.406599000     -1.424573000      2.726161000
1       -2.031872000     -2.008587000      0.684619000
1       -4.307747000     -0.379980000      3.797008000
1       -3.423110000     -1.911626000      3.530266000
46      -0.446644000     -0.053496000      0.607443000
8       -0.904594000      1.954422000      0.392614000
6        0.047240000      2.097892000     -0.437277000
8        0.741417000      1.072613000     -0.706113000
1        2.985412000     -3.546493000      1.197955000
8        2.050375000     -1.215666000      1.640790000
6        1.500582000     -2.032189000      0.914221000
8        0.334442000     -1.857993000      0.367200000
6        2.130643000     -3.350981000      0.553620000
1        1.402975000     -4.159163000      0.632552000
1        2.466498000     -3.308412000     -0.485394000
6        0.310361000      3.406973000     -1.081210000
1        1.372470000      3.512940000     -1.298429000
1       -0.239034000      3.439844000     -2.026288000
1       -0.040171000      4.220505000     -0.447969000
*