! PBE ZORA ZORA-def2-TZVP SARC/J CPCM(DCM) Opt FREQ

%pal
  nprocs 7
end

%basis
  NewGTO Pd "SARC-ZORA-TZVP" end
  NewGTO C  "ZORA-def2-TZVP" end
  NewGTO H  "ZORA-def2-TZVP" end
  NewGTO O  "ZORA-def2-TZVP" end
end

%cpcm
  epsilon 8.93
end

* xyz 0 1
46       0.270985000     -0.305350000     -0.033168000
8       -0.775620000      1.472552000      0.007881000
6        0.330622000      2.122760000     -0.039615000
8        1.402813000      1.417493000     -0.083051000
1       -0.598792837     -4.562494052     -0.737756758
8       -0.859001000     -2.030111000      0.020240000
6        0.214440000     -2.733510000     -0.023783000
8        1.319535000     -2.081318000     -0.068963000
6        0.180333000     -4.224350000     -0.038599000
1        1.141236777     -4.618164971     -0.394939013
1       -0.043986726     -4.607987934      0.963086796
6        0.365216000      3.613655000     -0.045302000
1        1.081000645      3.974435064     -0.792228658
1       -0.637476521      4.004054590     -0.269618477
1        0.646898570      3.979701632      0.951921325
*